<?xml version="1.0" encoding="UTF-8"?><osil xmlns="os.optimizationservices.org" xmlns:xsi="http://www.w3.org/2001/XMLSchema-instance" xsi:schemaLocation="os.optimizationservices.org http://www.optimizationservices.org/schemas/2.0/OSiL.xsd"><instanceHeader><name>st_testph4</name></instanceHeader><instanceData><variables numberOfVariables="3"><var name="i1" type="I" ub="100"/><var name="i2" type="I" ub="100"/><var name="i3" type="I" ub="100"/></variables><objectives><obj maxOrMin="min" name="defObj_objvar" numberOfObjCoef="3"><coef idx="0">-35</coef><coef idx="1">3</coef><coef idx="2">4</coef></obj></objectives><constraints numberOfConstraints="10"><con name="e1" ub="4"/><con name="e2" ub="4"/><con name="e3" ub="4"/><con name="e4" ub="35"/><con name="e5" ub="19"/><con name="e6" ub="23"/><con name="e7" ub="27"/><con name="e8" ub="7"/><con name="e9" ub="15"/><con name="e10" ub="11"/></constraints><linearConstraintCoefficients numberOfValues="24"><start><el mult="4" incr="1">0</el><el mult="7" incr="3">6</el></start><colIdx><el mult="3" incr="1">0</el><el mult="3" incr="1">0</el><el mult="3" incr="1">0</el><el mult="3" incr="1">0</el><el mult="3" incr="1">0</el><el mult="3" incr="1">0</el><el mult="3" incr="1">0</el><el mult="3" incr="1">0</el></colIdx><value><el mult="3">1</el><el>2</el><el>3</el><el>4</el><el>2</el><el>3</el><el>-4</el><el>2</el><el>-3</el><el>4</el><el>-2</el><el>3</el><el>4</el><el>2</el><el>-3</el><el>-4</el><el>-2</el><el>-3</el><el>4</el><el>-2</el><el>3</el><el>-4</el></value></linearConstraintCoefficients><quadraticCoefficients numberOfQuadraticTerms="3"><qTerm idx="-1" idxOne="0" idxTwo="0" coef="3.5"/><qTerm idx="-1" idxOne="1" idxTwo="1" coef=".5"/><qTerm idx="-1" idxOne="2" idxTwo="2" coef="2"/></quadraticCoefficients></instanceData></osil>